(set-logic HORN)
(set-info :source |
  Benchmark: ../golem/build/RealCodeNested/originalcodesceleton2.c
  Generated by Korn 0.4 https://github.com/gernst/korn
|)


(declare-fun $main_if8 (Int Int Int Int Int Int Int Int Int Int Int Int Int Int Int Int Int Int Int Int Int Int Int Int Int Int Int Int Int Int Int Int) Bool)
(declare-fun $main_inv2 (Int Int Int Int Int Int Int Int Int Int Int Int Int Int Int Int) Bool)
(declare-fun __assert_fail (Int Int Int Int) Bool)
(declare-fun $main_sum4 (Int Int Int Int Int Int Int Int Int Int Int Int Int Int Int Int) Bool)
(declare-fun $__VERIFIER_assert_pre (Int) Bool)
(declare-fun $__VERIFIER_assert_if1 (Int Int) Bool)
(declare-fun $main_if4 (Int Int Int Int Int Int Int Int Int Int Int Int Int Int Int Int Int Int Int Int Int Int Int Int Int Int Int Int Int Int Int Int) Bool)
(declare-fun $main_if9 (Int Int Int Int Int Int Int Int Int Int Int Int Int Int Int Int Int Int Int Int Int Int Int Int Int Int Int Int Int Int Int Int) Bool)
(declare-fun $main_inv1 (Int Int Int Int Int Int Int Int Int Int Int Int Int Int Int Int) Bool)
(declare-fun $main_sum2 (Int Int Int Int Int Int Int Int Int Int Int Int Int Int Int Int) Bool)
(declare-fun $main_if7 (Int Int Int Int Int Int Int Int Int Int Int Int Int Int Int Int Int Int Int Int Int Int Int Int Int Int Int Int Int Int Int Int) Bool)
(declare-fun $main_if2 (Int Int Int Int Int Int Int Int Int Int Int Int Int Int Int Int Int Int Int Int Int Int Int Int Int Int Int Int Int Int Int Int) Bool)
(declare-fun $main_inv4 (Int Int Int Int Int Int Int Int Int Int Int Int Int Int Int Int) Bool)
(declare-fun $main_if5 (Int Int Int Int Int Int Int Int Int Int Int Int Int Int Int Int Int Int Int Int Int Int Int Int Int Int Int Int Int Int Int Int) Bool)
(declare-fun $main_sum3 (Int Int Int Int Int Int Int Int Int Int Int Int Int Int Int Int) Bool)
(declare-fun __VERIFIER_assert (Int) Bool)
(declare-fun $__assert_fail_pre (Int Int Int Int) Bool)
(declare-fun $main_if3 (Int Int Int Int Int Int Int Int Int Int Int Int Int Int Int Int Int Int Int Int Int Int Int Int Int Int Int Int Int Int Int Int) Bool)
(declare-fun $main_sum1 (Int Int Int Int Int Int Int Int Int Int Int Int Int Int Int Int) Bool)
(declare-fun $main_inv3 (Int Int Int Int Int Int Int Int Int Int Int Int Int Int Int Int) Bool)
(declare-fun $main_if6 (Int Int Int Int Int Int Int Int Int Int Int Int Int Int Int Int Int Int Int Int Int Int Int Int Int Int Int Int Int Int Int Int) Bool)
(declare-fun $__VERIFIER_assert_ERROR (Int Int) Bool)

; label ERROR
(assert
  (forall ((cond!1 Int))
    (=> (and (not (not (= cond!1 0)))
             ($__VERIFIER_assert_pre cond!1))
        ($__VERIFIER_assert_ERROR cond!1 cond!1))))

; error
(assert
  (forall ((cond!1 Int) (cond!2 Int))
    (=> (and ($__VERIFIER_assert_ERROR cond!1 cond!2))
        false)))

; if else
(assert
  (forall ((cond!1 Int))
    (=> (and (not (not (not (= cond!1 0))))
             ($__VERIFIER_assert_pre cond!1))
        ($__VERIFIER_assert_if1 cond!1 cond!1))))

; post __VERIFIER_assert
(assert
  (forall ((cond!1 Int) (cond!3 Int))
    (=> (and ($__VERIFIER_assert_if1 cond!1 cond!3))
        (__VERIFIER_assert cond!1))))

; loop entry $main_inv1 (line 21)
(assert
  (forall ((l!11 Int) (j!15 Int) (res!16 Int) (k!17 Int) (preSize!8 Int) (var!13 Int) (subPath!9 Int) (reachableResult3!19 Int) (loopTransitions!5 Int) (loopSize!6 Int) (i!10 Int) (edgeVars!7 Int) (coreVars!14 Int) (reachedRefined!12 Int) (transitions!4 Int) (reachableResult!18 Int))
    (=> (and (= j!15 0)
             (= coreVars!14 0)
             (= var!13 0)
             (= reachedRefined!12 0)
             (= l!11 0)
             (= i!10 0)
             (= subPath!9 0)
             (<= 5 loopSize!6)
             (<= loopSize!6 10)
             (<= 5 loopTransitions!5)
             (<= loopTransitions!5 100)
             (<= 2 transitions!4)
             (<= transitions!4 100)
             (<= 5 edgeVars!7)
             (<= edgeVars!7 10000))
        ($main_inv1 transitions!4 loopTransitions!5 loopSize!6 edgeVars!7 preSize!8 subPath!9 i!10 l!11 reachedRefined!12 var!13 coreVars!14 j!15 res!16 k!17 reachableResult!18 reachableResult3!19))))

; loop term $main_sum1 (line 21)
(assert
  (forall ((preSize!24 Int) (reachedRefined!28 Int) (reachableResult3!35 Int) (transitions!20 Int) (edgeVars!23 Int) (reachableResult!34 Int) (i!26 Int) (loopTransitions!21 Int) (k!33 Int) (j!31 Int) (coreVars!30 Int) (subPath!25 Int) (l!27 Int) (loopSize!22 Int) (var!29 Int) (res!32 Int))
    (=> (and (not (< i!26 transitions!20))
             ($main_inv1 transitions!20 loopTransitions!21 loopSize!22 edgeVars!23 preSize!24 subPath!25 i!26 l!27 reachedRefined!28 var!29 coreVars!30 j!31 res!32 k!33 reachableResult!34 reachableResult3!35))
        ($main_sum1 transitions!20 loopTransitions!21 loopSize!22 edgeVars!23 preSize!24 subPath!25 i!26 l!27 reachedRefined!28 var!29 coreVars!30 j!31 res!32 k!33 reachableResult!34 reachableResult3!35))))

; loop entry $main_inv2 (line 23)
(assert
  (forall ((preSize!24 Int) (reachedRefined!28 Int) (reachableResult3!35 Int) (transitions!20 Int) (edgeVars!23 Int) (reachableResult!34 Int) (i!26 Int) (loopTransitions!21 Int) (k!33 Int) (j!31 Int) (coreVars!30 Int) (subPath!25 Int) (l!27 Int) (loopSize!22 Int) (var!29 Int) (res!32 Int))
    (=> (and (< i!26 transitions!20)
             ($main_inv1 transitions!20 loopTransitions!21 loopSize!22 edgeVars!23 preSize!24 subPath!25 i!26 l!27 reachedRefined!28 var!29 coreVars!30 j!31 res!32 k!33 reachableResult!34 reachableResult3!35))
        ($main_inv2 transitions!20 loopTransitions!21 loopSize!22 edgeVars!23 subPath!25 subPath!25 i!26 l!27 reachedRefined!28 var!29 coreVars!30 j!31 res!32 k!33 reachableResult!34 reachableResult3!35))))

; loop term $main_sum2 (line 23)
(assert
  (forall ((loopTransitions!37 Int) (coreVars!46 Int) (loopSize!38 Int) (reachedRefined!44 Int) (i!42 Int) (subPath!41 Int) (reachableResult!50 Int) (l!43 Int) (var!45 Int) (preSize!40 Int) (res!48 Int) (reachableResult3!51 Int) (k!49 Int) (transitions!36 Int) (edgeVars!39 Int) (j!47 Int))
    (=> (and (not (< var!45 edgeVars!39))
             ($main_inv2 transitions!36 loopTransitions!37 loopSize!38 edgeVars!39 preSize!40 subPath!41 i!42 l!43 reachedRefined!44 var!45 coreVars!46 j!47 res!48 k!49 reachableResult!50 reachableResult3!51))
        ($main_sum2 transitions!36 loopTransitions!37 loopSize!38 edgeVars!39 preSize!40 subPath!41 i!42 l!43 reachedRefined!44 var!45 coreVars!46 j!47 res!48 k!49 reachableResult!50 reachableResult3!51))))

; forwards $main_inv2 (line 23)
(assert
  (forall ((loopTransitions!37 Int) (coreVars!46 Int) (loopSize!38 Int) (reachedRefined!44 Int) (i!42 Int) (subPath!41 Int) (reachableResult!50 Int) (l!43 Int) (var!45 Int) (preSize!40 Int) (res!48 Int) (reachableResult3!51 Int) (k!49 Int) (transitions!36 Int) (edgeVars!39 Int) (j!47 Int))
    (=> (and (< var!45 edgeVars!39)
             ($main_inv2 transitions!36 loopTransitions!37 loopSize!38 edgeVars!39 preSize!40 subPath!41 i!42 l!43 reachedRefined!44 var!45 coreVars!46 j!47 res!48 k!49 reachableResult!50 reachableResult3!51))
        ($main_inv2 transitions!36 loopTransitions!37 loopSize!38 edgeVars!39 preSize!40 subPath!41 i!42 l!43 reachedRefined!44 (+ var!45 1) (+ coreVars!46 2) j!47 res!48 k!49 reachableResult!50 reachableResult3!51))))

; loop entry $main_inv3 (line 28)
(assert
  (forall ((var!61 Int) (reachableResult!66 Int) (j!63 Int) (loopSize!54 Int) (k!65 Int) (res!64 Int) (transitions!52 Int) (coreVars!62 Int) (reachableResult3!67 Int) (l!59 Int) (preSize!56 Int) (reachedRefined!60 Int) (edgeVars!55 Int) (i!58 Int) (loopTransitions!53 Int) (subPath!57 Int))
    (=> (and ($main_sum2 transitions!52 loopTransitions!53 loopSize!54 edgeVars!55 preSize!56 subPath!57 i!58 l!59 reachedRefined!60 var!61 coreVars!62 j!63 res!64 k!65 reachableResult!66 reachableResult3!67))
        ($main_inv3 transitions!52 loopTransitions!53 loopSize!54 edgeVars!55 preSize!56 subPath!57 i!58 l!59 reachedRefined!60 var!61 coreVars!62 j!63 res!64 k!65 reachableResult!66 reachableResult3!67))))

; loop term $main_sum3 (line 28)
(assert
  (forall ((i!74 Int) (edgeVars!71 Int) (loopTransitions!69 Int) (reachableResult3!83 Int) (preSize!72 Int) (coreVars!78 Int) (l!75 Int) (transitions!68 Int) (res!80 Int) (reachableResult!82 Int) (loopSize!70 Int) (reachedRefined!76 Int) (k!81 Int) (subPath!73 Int) (j!79 Int) (var!77 Int))
    (=> (and (not (< j!79 loopTransitions!69))
             ($main_inv3 transitions!68 loopTransitions!69 loopSize!70 edgeVars!71 preSize!72 subPath!73 i!74 l!75 reachedRefined!76 var!77 coreVars!78 j!79 res!80 k!81 reachableResult!82 reachableResult3!83))
        ($main_sum3 transitions!68 loopTransitions!69 loopSize!70 edgeVars!71 preSize!72 subPath!73 i!74 l!75 reachedRefined!76 var!77 coreVars!78 j!79 res!80 k!81 reachableResult!82 reachableResult3!83))))

; loop entry $main_inv4 (line 32)
(assert
  (forall ((i!74 Int) (edgeVars!71 Int) (loopTransitions!69 Int) (reachableResult3!83 Int) (preSize!72 Int) (coreVars!78 Int) (l!75 Int) (transitions!68 Int) (res!80 Int) (reachableResult!82 Int) (loopSize!70 Int) (reachedRefined!76 Int) (k!81 Int) (subPath!73 Int) (j!79 Int) (var!77 Int))
    (=> (and (> res!80 0)
             (<= 0 res!80)
             (<= res!80 1)
             (< j!79 loopTransitions!69)
             ($main_inv3 transitions!68 loopTransitions!69 loopSize!70 edgeVars!71 preSize!72 subPath!73 i!74 l!75 reachedRefined!76 var!77 coreVars!78 j!79 res!80 k!81 reachableResult!82 reachableResult3!83))
        ($main_inv4 transitions!68 loopTransitions!69 loopSize!70 edgeVars!71 preSize!72 subPath!73 i!74 l!75 reachedRefined!76 var!77 coreVars!78 j!79 res!80 k!81 reachableResult!82 reachableResult3!83))))

; loop term $main_sum4 (line 32)
(assert
  (forall ((reachedRefined!92 Int) (reachableResult!98 Int) (transitions!84 Int) (l!91 Int) (preSize!88 Int) (loopSize!86 Int) (loopTransitions!85 Int) (i!90 Int) (subPath!89 Int) (var!93 Int) (edgeVars!87 Int) (j!95 Int) (k!97 Int) (res!96 Int) (reachableResult3!99 Int) (coreVars!94 Int))
    (=> (and (not (< l!91 (* loopSize!86 2)))
             ($main_inv4 transitions!84 loopTransitions!85 loopSize!86 edgeVars!87 preSize!88 subPath!89 i!90 l!91 reachedRefined!92 var!93 coreVars!94 j!95 res!96 k!97 reachableResult!98 reachableResult3!99))
        ($main_sum4 transitions!84 loopTransitions!85 loopSize!86 edgeVars!87 preSize!88 subPath!89 i!90 l!91 reachedRefined!92 var!93 coreVars!94 j!95 res!96 k!97 reachableResult!98 reachableResult3!99))))

; ite left
(assert
  (forall ((reachedRefined!92 Int) (reachableResult!98 Int) (transitions!84 Int) (l!91 Int) (preSize!88 Int) (loopSize!86 Int) (loopTransitions!85 Int) (i!90 Int) (subPath!89 Int) (var!93 Int) (edgeVars!87 Int) (j!95 Int) (k!97 Int) (res!96 Int) (reachableResult3!99 Int) (coreVars!94 Int))
    (=> (and (not (= subPath!89 0))
             (< l!91 (* loopSize!86 2))
             ($main_inv4 transitions!84 loopTransitions!85 loopSize!86 edgeVars!87 preSize!88 subPath!89 i!90 l!91 reachedRefined!92 var!93 coreVars!94 j!95 res!96 k!97 reachableResult!98 reachableResult3!99))
        ($main_if2 transitions!84 loopTransitions!85 loopSize!86 edgeVars!87 preSize!88 subPath!89 i!90 l!91 reachedRefined!92 var!93 coreVars!94 j!95 res!96 k!97 reachableResult!98 reachableResult3!99 transitions!84 loopTransitions!85 loopSize!86 edgeVars!87 preSize!88 subPath!89 i!90 l!91 reachedRefined!92 var!93 coreVars!94 j!95 res!96 k!97 reachableResult!98 reachableResult3!99))))

; ite right
(assert
  (forall ((reachedRefined!92 Int) (reachableResult!98 Int) (transitions!84 Int) (l!91 Int) (preSize!88 Int) (loopSize!86 Int) (loopTransitions!85 Int) (i!90 Int) (subPath!89 Int) (var!93 Int) (edgeVars!87 Int) (j!95 Int) (k!97 Int) (res!96 Int) (reachableResult3!99 Int) (coreVars!94 Int))
    (=> (and (not (not (= subPath!89 0)))
             (< l!91 (* loopSize!86 2))
             ($main_inv4 transitions!84 loopTransitions!85 loopSize!86 edgeVars!87 preSize!88 subPath!89 i!90 l!91 reachedRefined!92 var!93 coreVars!94 j!95 res!96 k!97 reachableResult!98 reachableResult3!99))
        ($main_if2 transitions!84 loopTransitions!85 loopSize!86 edgeVars!87 preSize!88 subPath!89 i!90 l!91 reachedRefined!92 var!93 coreVars!94 j!95 res!96 k!97 reachableResult!98 reachableResult3!99 transitions!84 loopTransitions!85 loopSize!86 edgeVars!87 preSize!88 subPath!89 i!90 l!91 reachedRefined!92 var!93 coreVars!94 j!95 res!96 k!97 reachableResult!98 reachableResult3!99))))

; break $main_sum4
(assert
  (forall ((reachableResult!98 Int) (transitions!84 Int) (l!91 Int) (reachableResult3!115 Int) (loopSize!86 Int) (var!109 Int) (i!90 Int) (subPath!89 Int) (var!93 Int) (l!107 Int) (j!95 Int) (preSize!104 Int) (reachedRefined!92 Int) (i!106 Int) (k!113 Int) (subPath!105 Int) (loopSize!102 Int) (k!97 Int) (res!96 Int) (j!111 Int) (preSize!88 Int) (res!112 Int) (transitions!100 Int) (loopTransitions!85 Int) (coreVars!110 Int) (edgeVars!103 Int) (reachedRefined!108 Int) (reachableResult3!99 Int) (loopTransitions!101 Int) (coreVars!94 Int) (edgeVars!87 Int) (reachableResult!114 Int))
    (=> (and (= l!107 0)
             (not (> reachableResult!114 0))
             (= (mod l!107 2) 0)
             (or (= reachableResult!114 1) (= reachableResult!114 0))
             (= k!113 (div l!107 2))
             ($main_if2 transitions!84 loopTransitions!85 loopSize!86 edgeVars!87 preSize!88 subPath!89 i!90 l!91 reachedRefined!92 var!93 coreVars!94 j!95 res!96 k!97 reachableResult!98 reachableResult3!99 transitions!100 loopTransitions!101 loopSize!102 edgeVars!103 preSize!104 subPath!105 i!106 l!107 reachedRefined!108 var!109 coreVars!110 j!111 res!112 k!113 reachableResult!114 reachableResult3!115))
        ($main_sum4 transitions!100 loopTransitions!101 loopSize!102 edgeVars!103 preSize!104 subPath!105 i!106 l!107 (ite (not (= subPath!89 0)) (+ reachedRefined!92 subPath!89) reachedRefined!92) var!109 coreVars!110 j!111 res!112 k!113 reachableResult!114 reachableResult3!115))))

; if else
(assert
  (forall ((reachableResult!98 Int) (transitions!84 Int) (l!91 Int) (reachableResult3!115 Int) (loopSize!86 Int) (var!109 Int) (i!90 Int) (subPath!89 Int) (var!93 Int) (l!107 Int) (j!95 Int) (preSize!104 Int) (reachedRefined!92 Int) (i!106 Int) (k!113 Int) (subPath!105 Int) (loopSize!102 Int) (k!97 Int) (res!96 Int) (j!111 Int) (preSize!88 Int) (res!112 Int) (transitions!100 Int) (loopTransitions!85 Int) (coreVars!110 Int) (edgeVars!103 Int) (reachedRefined!108 Int) (reachableResult3!99 Int) (loopTransitions!101 Int) (coreVars!94 Int) (edgeVars!87 Int) (reachableResult!114 Int))
    (=> (and (not (= l!107 0))
             (not (> reachableResult!114 0))
             (= (mod l!107 2) 0)
             (or (= reachableResult!114 1) (= reachableResult!114 0))
             (= k!113 (div l!107 2))
             ($main_if2 transitions!84 loopTransitions!85 loopSize!86 edgeVars!87 preSize!88 subPath!89 i!90 l!91 reachedRefined!92 var!93 coreVars!94 j!95 res!96 k!97 reachableResult!98 reachableResult3!99 transitions!100 loopTransitions!101 loopSize!102 edgeVars!103 preSize!104 subPath!105 i!106 l!107 reachedRefined!108 var!109 coreVars!110 j!111 res!112 k!113 reachableResult!114 reachableResult3!115))
        ($main_if3 transitions!84 loopTransitions!85 loopSize!86 edgeVars!87 preSize!88 subPath!89 i!90 l!91 reachedRefined!92 var!93 coreVars!94 j!95 res!96 k!97 reachableResult!98 reachableResult3!99 transitions!100 loopTransitions!101 loopSize!102 edgeVars!103 preSize!104 subPath!105 i!106 l!107 (ite (not (= subPath!89 0)) (+ reachedRefined!92 subPath!89) reachedRefined!92) var!109 coreVars!110 j!111 res!112 k!113 reachableResult!114 reachableResult3!115))))

; if then
(assert
  (forall ((reachableResult!98 Int) (transitions!84 Int) (l!91 Int) (reachableResult3!115 Int) (loopSize!86 Int) (var!109 Int) (i!90 Int) (subPath!89 Int) (var!93 Int) (l!107 Int) (j!95 Int) (preSize!104 Int) (reachedRefined!92 Int) (i!106 Int) (k!113 Int) (subPath!105 Int) (loopSize!102 Int) (k!97 Int) (res!96 Int) (j!111 Int) (preSize!88 Int) (res!112 Int) (transitions!100 Int) (loopTransitions!85 Int) (coreVars!110 Int) (edgeVars!103 Int) (reachedRefined!108 Int) (reachableResult3!99 Int) (loopTransitions!101 Int) (coreVars!94 Int) (edgeVars!87 Int) (reachableResult!114 Int))
    (=> (and (> reachableResult!114 0)
             (= (mod l!107 2) 0)
             (or (= reachableResult!114 1) (= reachableResult!114 0))
             (= k!113 (div l!107 2))
             ($main_if2 transitions!84 loopTransitions!85 loopSize!86 edgeVars!87 preSize!88 subPath!89 i!90 l!91 reachedRefined!92 var!93 coreVars!94 j!95 res!96 k!97 reachableResult!98 reachableResult3!99 transitions!100 loopTransitions!101 loopSize!102 edgeVars!103 preSize!104 subPath!105 i!106 l!107 reachedRefined!108 var!109 coreVars!110 j!111 res!112 k!113 reachableResult!114 reachableResult3!115))
        ($main_if4 transitions!84 loopTransitions!85 loopSize!86 edgeVars!87 preSize!88 subPath!89 i!90 l!91 reachedRefined!92 var!93 coreVars!94 j!95 res!96 k!97 reachableResult!98 reachableResult3!99 transitions!100 loopTransitions!101 loopSize!102 edgeVars!103 preSize!104 (+ subPath!105 1) i!106 (+ l!107 1) (ite (not (= subPath!89 0)) (+ reachedRefined!92 subPath!89) reachedRefined!92) var!109 coreVars!110 j!111 res!112 k!113 reachableResult!114 reachableResult3!115))))

; if else
(assert
  (forall ((reachedRefined!92 Int) (transitions!84 Int) (l!91 Int) (subPath!121 Int) (k!129 Int) (preSize!88 Int) (reachableResult!130 Int) (transitions!116 Int) (loopTransitions!85 Int) (i!90 Int) (coreVars!126 Int) (reachedRefined!124 Int) (j!95 Int) (reachableResult!98 Int) (l!123 Int) (loopTransitions!117 Int) (loopSize!118 Int) (k!97 Int) (var!125 Int) (res!96 Int) (reachableResult3!131 Int) (i!122 Int) (loopSize!86 Int) (res!128 Int) (subPath!89 Int) (edgeVars!119 Int) (j!127 Int) (var!93 Int) (reachableResult3!99 Int) (coreVars!94 Int) (preSize!120 Int) (edgeVars!87 Int))
    (=> (and ($main_if3 transitions!84 loopTransitions!85 loopSize!86 edgeVars!87 preSize!88 subPath!89 i!90 l!91 reachedRefined!92 var!93 coreVars!94 j!95 res!96 k!97 reachableResult!98 reachableResult3!99 transitions!116 loopTransitions!117 loopSize!118 edgeVars!119 preSize!120 subPath!121 i!122 l!123 reachedRefined!124 var!125 coreVars!126 j!127 res!128 k!129 reachableResult!130 reachableResult3!131))
        ($main_if4 transitions!84 loopTransitions!85 loopSize!86 edgeVars!87 preSize!88 subPath!89 i!90 l!91 reachedRefined!92 var!93 coreVars!94 j!95 res!96 k!97 reachableResult!98 reachableResult3!99 transitions!116 loopTransitions!117 loopSize!118 edgeVars!119 preSize!120 (- subPath!121 1) i!122 (- l!123 1) reachedRefined!124 var!125 coreVars!126 j!127 res!128 k!129 reachableResult!130 reachableResult3!131))))

; if then
(assert
  (forall ((reachableResult!98 Int) (transitions!84 Int) (l!91 Int) (reachableResult3!115 Int) (loopSize!86 Int) (var!109 Int) (i!90 Int) (subPath!89 Int) (var!93 Int) (l!107 Int) (j!95 Int) (preSize!104 Int) (reachedRefined!92 Int) (i!106 Int) (k!113 Int) (subPath!105 Int) (loopSize!102 Int) (k!97 Int) (res!96 Int) (j!111 Int) (preSize!88 Int) (res!112 Int) (transitions!100 Int) (loopTransitions!85 Int) (coreVars!110 Int) (edgeVars!103 Int) (reachedRefined!108 Int) (reachableResult3!99 Int) (loopTransitions!101 Int) (coreVars!94 Int) (edgeVars!87 Int) (reachableResult!114 Int))
    (=> (and (> reachableResult3!115 0)
             (or (= reachableResult3!115 1) (= reachableResult3!115 0))
             (not (= (mod l!107 2) 0))
             (or (= reachableResult!114 1) (= reachableResult!114 0))
             (= k!113 (div l!107 2))
             ($main_if2 transitions!84 loopTransitions!85 loopSize!86 edgeVars!87 preSize!88 subPath!89 i!90 l!91 reachedRefined!92 var!93 coreVars!94 j!95 res!96 k!97 reachableResult!98 reachableResult3!99 transitions!100 loopTransitions!101 loopSize!102 edgeVars!103 preSize!104 subPath!105 i!106 l!107 reachedRefined!108 var!109 coreVars!110 j!111 res!112 k!113 reachableResult!114 reachableResult3!115))
        ($main_if5 transitions!84 loopTransitions!85 loopSize!86 edgeVars!87 preSize!88 subPath!89 i!90 l!91 reachedRefined!92 var!93 coreVars!94 j!95 res!96 k!97 reachableResult!98 reachableResult3!99 transitions!100 loopTransitions!101 loopSize!102 edgeVars!103 preSize!104 (+ subPath!105 1) i!106 (+ l!107 1) (ite (not (= subPath!89 0)) (+ reachedRefined!92 subPath!89) reachedRefined!92) var!109 coreVars!110 j!111 res!112 k!113 reachableResult!114 reachableResult3!115))))

; if else
(assert
  (forall ((reachableResult!98 Int) (transitions!84 Int) (l!91 Int) (reachableResult3!115 Int) (loopSize!86 Int) (var!109 Int) (i!90 Int) (subPath!89 Int) (var!93 Int) (l!107 Int) (j!95 Int) (preSize!104 Int) (reachedRefined!92 Int) (i!106 Int) (k!113 Int) (subPath!105 Int) (loopSize!102 Int) (k!97 Int) (res!96 Int) (j!111 Int) (preSize!88 Int) (res!112 Int) (transitions!100 Int) (loopTransitions!85 Int) (coreVars!110 Int) (edgeVars!103 Int) (reachedRefined!108 Int) (reachableResult3!99 Int) (loopTransitions!101 Int) (coreVars!94 Int) (edgeVars!87 Int) (reachableResult!114 Int))
    (=> (and (not (> reachableResult3!115 0))
             (or (= reachableResult3!115 1) (= reachableResult3!115 0))
             (not (= (mod l!107 2) 0))
             (or (= reachableResult!114 1) (= reachableResult!114 0))
             (= k!113 (div l!107 2))
             ($main_if2 transitions!84 loopTransitions!85 loopSize!86 edgeVars!87 preSize!88 subPath!89 i!90 l!91 reachedRefined!92 var!93 coreVars!94 j!95 res!96 k!97 reachableResult!98 reachableResult3!99 transitions!100 loopTransitions!101 loopSize!102 edgeVars!103 preSize!104 subPath!105 i!106 l!107 reachedRefined!108 var!109 coreVars!110 j!111 res!112 k!113 reachableResult!114 reachableResult3!115))
        ($main_if5 transitions!84 loopTransitions!85 loopSize!86 edgeVars!87 preSize!88 subPath!89 i!90 l!91 reachedRefined!92 var!93 coreVars!94 j!95 res!96 k!97 reachableResult!98 reachableResult3!99 transitions!100 loopTransitions!101 loopSize!102 edgeVars!103 preSize!104 (- subPath!105 1) i!106 (- l!107 1) (ite (not (= subPath!89 0)) (+ reachedRefined!92 subPath!89) reachedRefined!92) var!109 coreVars!110 j!111 res!112 k!113 reachableResult!114 reachableResult3!115))))

; if then
(assert
  (forall ((var!141 Int) (edgeVars!135 Int) (subPath!137 Int) (preSize!88 Int) (loopSize!86 Int) (reachableResult3!147 Int) (preSize!136 Int) (loopSize!134 Int) (loopTransitions!85 Int) (i!90 Int) (subPath!89 Int) (k!145 Int) (edgeVars!87 Int) (reachedRefined!92 Int) (res!144 Int) (reachableResult!98 Int) (j!143 Int) (reachedRefined!140 Int) (transitions!84 Int) (l!139 Int) (l!91 Int) (loopTransitions!133 Int) (reachableResult!146 Int) (k!97 Int) (transitions!132 Int) (res!96 Int) (i!138 Int) (var!93 Int) (reachableResult3!99 Int) (coreVars!94 Int) (coreVars!142 Int) (j!95 Int))
    (=> (and ($main_if4 transitions!84 loopTransitions!85 loopSize!86 edgeVars!87 preSize!88 subPath!89 i!90 l!91 reachedRefined!92 var!93 coreVars!94 j!95 res!96 k!97 reachableResult!98 reachableResult3!99 transitions!132 loopTransitions!133 loopSize!134 edgeVars!135 preSize!136 subPath!137 i!138 l!139 reachedRefined!140 var!141 coreVars!142 j!143 res!144 k!145 reachableResult!146 reachableResult3!147))
        ($main_if6 transitions!84 loopTransitions!85 loopSize!86 edgeVars!87 preSize!88 subPath!89 i!90 l!91 reachedRefined!92 var!93 coreVars!94 j!95 res!96 k!97 reachableResult!98 reachableResult3!99 transitions!132 loopTransitions!133 loopSize!134 edgeVars!135 preSize!136 subPath!137 i!138 l!139 reachedRefined!140 var!141 coreVars!142 j!143 res!144 k!145 reachableResult!146 reachableResult3!147))))

; if else
(assert
  (forall ((reachableResult!98 Int) (l!91 Int) (k!161 Int) (preSize!152 Int) (loopTransitions!149 Int) (coreVars!158 Int) (loopSize!86 Int) (j!159 Int) (i!154 Int) (loopTransitions!85 Int) (i!90 Int) (reachableResult3!163 Int) (subPath!89 Int) (var!93 Int) (subPath!153 Int) (edgeVars!87 Int) (j!95 Int) (reachedRefined!92 Int) (res!160 Int) (transitions!148 Int) (reachableResult!162 Int) (transitions!84 Int) (l!155 Int) (reachedRefined!156 Int) (edgeVars!151 Int) (k!97 Int) (res!96 Int) (preSize!88 Int) (loopSize!150 Int) (reachableResult3!99 Int) (var!157 Int) (coreVars!94 Int))
    (=> (and ($main_if5 transitions!84 loopTransitions!85 loopSize!86 edgeVars!87 preSize!88 subPath!89 i!90 l!91 reachedRefined!92 var!93 coreVars!94 j!95 res!96 k!97 reachableResult!98 reachableResult3!99 transitions!148 loopTransitions!149 loopSize!150 edgeVars!151 preSize!152 subPath!153 i!154 l!155 reachedRefined!156 var!157 coreVars!158 j!159 res!160 k!161 reachableResult!162 reachableResult3!163))
        ($main_if6 transitions!84 loopTransitions!85 loopSize!86 edgeVars!87 preSize!88 subPath!89 i!90 l!91 reachedRefined!92 var!93 coreVars!94 j!95 res!96 k!97 reachableResult!98 reachableResult3!99 transitions!148 loopTransitions!149 loopSize!150 edgeVars!151 preSize!152 subPath!153 i!154 l!155 reachedRefined!156 var!157 coreVars!158 j!159 res!160 k!161 reachableResult!162 reachableResult3!163))))

; forwards $main_inv4 (line 32)
(assert
  (forall ((reachedRefined!92 Int) (reachableResult!98 Int) (transitions!84 Int) (l!91 Int) (coreVars!174 Int) (loopSize!166 Int) (loopTransitions!165 Int) (preSize!88 Int) (loopSize!86 Int) (i!90 Int) (reachableResult3!179 Int) (subPath!89 Int) (k!177 Int) (j!95 Int) (k!97 Int) (edgeVars!167 Int) (res!96 Int) (j!175 Int) (preSize!168 Int) (l!171 Int) (loopTransitions!85 Int) (subPath!169 Int) (transitions!164 Int) (var!93 Int) (reachableResult3!99 Int) (var!173 Int) (coreVars!94 Int) (reachedRefined!172 Int) (i!170 Int) (res!176 Int) (reachableResult!178 Int) (edgeVars!87 Int))
    (=> (and ($main_if6 transitions!84 loopTransitions!85 loopSize!86 edgeVars!87 preSize!88 subPath!89 i!90 l!91 reachedRefined!92 var!93 coreVars!94 j!95 res!96 k!97 reachableResult!98 reachableResult3!99 transitions!164 loopTransitions!165 loopSize!166 edgeVars!167 preSize!168 subPath!169 i!170 l!171 reachedRefined!172 var!173 coreVars!174 j!175 res!176 k!177 reachableResult!178 reachableResult3!179))
        ($main_inv4 transitions!164 loopTransitions!165 loopSize!166 edgeVars!167 preSize!168 subPath!169 i!170 l!171 reachedRefined!172 var!173 coreVars!174 j!175 res!176 k!177 reachableResult!178 reachableResult3!179))))

; break $main_sum3
(assert
  (forall ((k!193 Int) (l!187 Int) (j!191 Int) (subPath!185 Int) (loopSize!182 Int) (reachableResult3!195 Int) (coreVars!190 Int) (i!186 Int) (reachedRefined!188 Int) (res!192 Int) (reachableResult!194 Int) (var!189 Int) (transitions!180 Int) (preSize!184 Int) (loopTransitions!181 Int) (edgeVars!183 Int))
    (=> (and (> subPath!185 preSize!184)
             ($main_sum4 transitions!180 loopTransitions!181 loopSize!182 edgeVars!183 preSize!184 subPath!185 i!186 l!187 reachedRefined!188 var!189 coreVars!190 j!191 res!192 k!193 reachableResult!194 reachableResult3!195))
        ($main_sum3 transitions!180 loopTransitions!181 loopSize!182 edgeVars!183 preSize!184 subPath!185 i!186 l!187 subPath!185 var!189 coreVars!190 j!191 res!192 k!193 reachableResult!194 reachableResult3!195))))

; if else
(assert
  (forall ((k!193 Int) (j!191 Int) (reachableResult3!83 Int) (preSize!72 Int) (coreVars!78 Int) (loopSize!182 Int) (transitions!68 Int) (res!80 Int) (i!74 Int) (coreVars!190 Int) (i!186 Int) (reachedRefined!188 Int) (res!192 Int) (edgeVars!71 Int) (l!187 Int) (loopTransitions!69 Int) (reachableResult!194 Int) (var!189 Int) (transitions!180 Int) (preSize!184 Int) (reachableResult!82 Int) (loopSize!70 Int) (reachedRefined!76 Int) (loopTransitions!181 Int) (edgeVars!183 Int) (l!75 Int) (subPath!185 Int) (k!81 Int) (subPath!73 Int) (reachableResult3!195 Int) (j!79 Int) (var!77 Int))
    (=> (and (not (> subPath!185 preSize!184))
             ($main_sum4 transitions!180 loopTransitions!181 loopSize!182 edgeVars!183 preSize!184 subPath!185 i!186 l!187 reachedRefined!188 var!189 coreVars!190 j!191 res!192 k!193 reachableResult!194 reachableResult3!195))
        ($main_if7 transitions!68 loopTransitions!69 loopSize!70 edgeVars!71 preSize!72 subPath!73 i!74 l!75 reachedRefined!76 var!77 coreVars!78 j!79 res!80 k!81 reachableResult!82 reachableResult3!83 transitions!180 loopTransitions!181 loopSize!182 edgeVars!183 preSize!184 subPath!185 i!186 l!187 reachedRefined!188 var!189 coreVars!190 j!191 res!192 k!193 reachableResult!194 reachableResult3!195))))

; if then
(assert
  (forall ((j!207 Int) (loopTransitions!69 Int) (reachableResult3!211 Int) (reachableResult3!83 Int) (preSize!72 Int) (coreVars!78 Int) (k!209 Int) (subPath!201 Int) (transitions!68 Int) (res!80 Int) (i!74 Int) (reachedRefined!204 Int) (res!208 Int) (edgeVars!71 Int) (preSize!200 Int) (var!205 Int) (reachableResult!82 Int) (loopSize!70 Int) (reachedRefined!76 Int) (coreVars!206 Int) (l!75 Int) (k!81 Int) (subPath!73 Int) (l!203 Int) (loopSize!198 Int) (i!202 Int) (edgeVars!199 Int) (reachableResult!210 Int) (loopTransitions!197 Int) (transitions!196 Int) (j!79 Int) (var!77 Int))
    (=> (and ($main_if7 transitions!68 loopTransitions!69 loopSize!70 edgeVars!71 preSize!72 subPath!73 i!74 l!75 reachedRefined!76 var!77 coreVars!78 j!79 res!80 k!81 reachableResult!82 reachableResult3!83 transitions!196 loopTransitions!197 loopSize!198 edgeVars!199 preSize!200 subPath!201 i!202 l!203 reachedRefined!204 var!205 coreVars!206 j!207 res!208 k!209 reachableResult!210 reachableResult3!211))
        ($main_if8 transitions!68 loopTransitions!69 loopSize!70 edgeVars!71 preSize!72 subPath!73 i!74 l!75 reachedRefined!76 var!77 coreVars!78 j!79 res!80 k!81 reachableResult!82 reachableResult3!83 transitions!196 loopTransitions!197 loopSize!198 edgeVars!199 preSize!200 subPath!201 i!202 0 reachedRefined!204 var!205 coreVars!206 j!207 res!208 k!209 reachableResult!210 reachableResult3!211))))

; if else
(assert
  (forall ((i!74 Int) (edgeVars!71 Int) (loopTransitions!69 Int) (reachableResult3!83 Int) (preSize!72 Int) (coreVars!78 Int) (l!75 Int) (transitions!68 Int) (res!80 Int) (reachableResult!82 Int) (loopSize!70 Int) (reachedRefined!76 Int) (k!81 Int) (subPath!73 Int) (j!79 Int) (var!77 Int))
    (=> (and (not (> res!80 0))
             (<= 0 res!80)
             (<= res!80 1)
             (< j!79 loopTransitions!69)
             ($main_inv3 transitions!68 loopTransitions!69 loopSize!70 edgeVars!71 preSize!72 subPath!73 i!74 l!75 reachedRefined!76 var!77 coreVars!78 j!79 res!80 k!81 reachableResult!82 reachableResult3!83))
        ($main_if8 transitions!68 loopTransitions!69 loopSize!70 edgeVars!71 preSize!72 subPath!73 i!74 l!75 reachedRefined!76 var!77 coreVars!78 j!79 res!80 k!81 reachableResult!82 reachableResult3!83 transitions!68 loopTransitions!69 loopSize!70 edgeVars!71 preSize!72 subPath!73 i!74 l!75 reachedRefined!76 var!77 coreVars!78 j!79 res!80 k!81 reachableResult!82 reachableResult3!83))))

; forwards $main_inv3 (line 28)
(assert
  (forall ((loopTransitions!69 Int) (var!221 Int) (i!218 Int) (preSize!72 Int) (reachableResult!226 Int) (transitions!212 Int) (loopSize!214 Int) (transitions!68 Int) (coreVars!222 Int) (res!80 Int) (i!74 Int) (subPath!217 Int) (l!219 Int) (edgeVars!71 Int) (res!224 Int) (k!225 Int) (reachableResult3!83 Int) (edgeVars!215 Int) (reachedRefined!220 Int) (reachableResult!82 Int) (loopSize!70 Int) (preSize!216 Int) (reachedRefined!76 Int) (coreVars!78 Int) (loopTransitions!213 Int) (l!75 Int) (j!223 Int) (k!81 Int) (subPath!73 Int) (reachableResult3!227 Int) (j!79 Int) (var!77 Int))
    (=> (and ($main_if8 transitions!68 loopTransitions!69 loopSize!70 edgeVars!71 preSize!72 subPath!73 i!74 l!75 reachedRefined!76 var!77 coreVars!78 j!79 res!80 k!81 reachableResult!82 reachableResult3!83 transitions!212 loopTransitions!213 loopSize!214 edgeVars!215 preSize!216 subPath!217 i!218 l!219 reachedRefined!220 var!221 coreVars!222 j!223 res!224 k!225 reachableResult!226 reachableResult3!227))
        ($main_inv3 transitions!212 loopTransitions!213 loopSize!214 edgeVars!215 preSize!216 subPath!217 i!218 l!219 reachedRefined!220 var!221 coreVars!222 (+ j!223 1) res!224 k!225 reachableResult!226 reachableResult3!227))))

; if else
(assert
  (forall ((preSize!24 Int) (reachedRefined!236 Int) (i!234 Int) (reachableResult!34 Int) (preSize!232 Int) (loopTransitions!21 Int) (k!33 Int) (j!31 Int) (coreVars!30 Int) (subPath!25 Int) (l!27 Int) (loopSize!22 Int) (var!237 Int) (k!241 Int) (reachableResult3!243 Int) (reachedRefined!28 Int) (reachableResult3!35 Int) (subPath!233 Int) (edgeVars!231 Int) (l!235 Int) (transitions!20 Int) (loopSize!230 Int) (loopTransitions!229 Int) (edgeVars!23 Int) (transitions!228 Int) (coreVars!238 Int) (reachableResult!242 Int) (j!239 Int) (i!26 Int) (var!29 Int) (res!32 Int) (res!240 Int))
    (=> (and (not (= subPath!233 preSize!232))
             ($main_sum3 transitions!228 loopTransitions!229 loopSize!230 edgeVars!231 preSize!232 subPath!233 i!234 l!235 reachedRefined!236 var!237 coreVars!238 j!239 res!240 k!241 reachableResult!242 reachableResult3!243))
        ($main_if9 transitions!20 loopTransitions!21 loopSize!22 edgeVars!23 preSize!24 subPath!25 i!26 l!27 reachedRefined!28 var!29 coreVars!30 j!31 res!32 k!33 reachableResult!34 reachableResult3!35 transitions!228 loopTransitions!229 loopSize!230 edgeVars!231 preSize!232 subPath!233 i!234 l!235 reachedRefined!236 var!237 coreVars!238 j!239 res!240 k!241 reachableResult!242 reachableResult3!243))))

; forwards $main_inv1 (line 21)
(assert
  (forall ((j!255 Int) (loopTransitions!245 Int) (preSize!24 Int) (k!257 Int) (reachedRefined!28 Int) (transitions!20 Int) (reachableResult!34 Int) (loopTransitions!21 Int) (j!31 Int) (coreVars!30 Int) (reachableResult!258 Int) (subPath!25 Int) (l!27 Int) (coreVars!254 Int) (loopSize!22 Int) (subPath!249 Int) (edgeVars!247 Int) (reachedRefined!252 Int) (l!251 Int) (i!250 Int) (res!256 Int) (reachableResult3!35 Int) (transitions!244 Int) (var!253 Int) (edgeVars!23 Int) (reachableResult3!259 Int) (i!26 Int) (preSize!248 Int) (loopSize!246 Int) (k!33 Int) (var!29 Int) (res!32 Int))
    (=> (and ($main_if9 transitions!20 loopTransitions!21 loopSize!22 edgeVars!23 preSize!24 subPath!25 i!26 l!27 reachedRefined!28 var!29 coreVars!30 j!31 res!32 k!33 reachableResult!34 reachableResult3!35 transitions!244 loopTransitions!245 loopSize!246 edgeVars!247 preSize!248 subPath!249 i!250 l!251 reachedRefined!252 var!253 coreVars!254 j!255 res!256 k!257 reachableResult!258 reachableResult3!259))
        ($main_inv1 transitions!244 loopTransitions!245 loopSize!246 edgeVars!247 preSize!248 subPath!249 (+ i!250 1) l!251 reachedRefined!252 var!253 coreVars!254 0 res!256 k!257 reachableResult!258 reachableResult3!259))))

; VERIFIER_assert (< subPath!265 l!267)
(assert
  (forall ((loopSize!262 Int) (transitions!260 Int) (coreVars!270 Int) (i!266 Int) (reachableResult!274 Int) (edgeVars!263 Int) (res!272 Int) (var!269 Int) (reachableResult3!275 Int) (j!271 Int) (l!267 Int) (k!273 Int) (preSize!264 Int) (loopTransitions!261 Int) (reachedRefined!268 Int) (subPath!265 Int))
    (=> (and (not (< subPath!265 l!267))
             ($main_sum1 transitions!260 loopTransitions!261 loopSize!262 edgeVars!263 preSize!264 subPath!265 i!266 l!267 reachedRefined!268 var!269 coreVars!270 j!271 res!272 k!273 reachableResult!274 reachableResult3!275))
        false)))

(check-sat)
